unknown
(model
; cardinality of BoundSet is 3
(declare-sort BoundSet 0)
; rep: @uc_BoundSet_0
; rep: @uc_BoundSet_1
; rep: @uc_BoundSet_2
; cardinality of UnboundSet is 1
(declare-sort UnboundSet 0)
(declare-fun groundTerm_4 () UnboundSet)
(define-fun LiveIn ((BOUND_VARIABLE_403 BoundSet) (BOUND_VARIABLE_404 BoundSet)) Bool (ite (= @uc_BoundSet_0 BOUND_VARIABLE_403) (= @uc_BoundSet_2 BOUND_VARIABLE_404) false))
(define-fun DoesNotExperience ((BOUND_VARIABLE_417 BoundSet)) Bool false)
)
sat
(model
; cardinality of BoundSet is 2
(declare-sort BoundSet 0)
; rep: @uc_BoundSet_0
; rep: @uc_BoundSet_1
; cardinality of UnboundSet is 1
(declare-sort UnboundSet 0)
(declare-fun groundTerm_6 () UnboundSet)
(define-fun LiveIn ((BOUND_VARIABLE_438 BoundSet) (BOUND_VARIABLE_439 BoundSet)) Bool (ite (= @uc_BoundSet_1 BOUND_VARIABLE_438) (= @uc_BoundSet_1 BOUND_VARIABLE_439) false))
(define-fun DoesNotExperience ((BOUND_VARIABLE_450 BoundSet)) Bool true)
)
